n_res = 4;
rc = [ 27, 34, 25, 26 ];
n_tasks = 30;
d = [ 2, 10, 8, 3, 10, 8, 6, 10, 9, 4, 9, 7, 5, 2, 8, 6, 7, 7, 2, 6, 3, 8, 7, 10, 5, 8, 10, 5, 2, 9 ];
rr = [| 3, 3, 10, 8, 6, 3, 4, 0, 4, 9, 0, 7, 4, 9, 0, 2, 3, 3, 6, 9, 0, 1, 4, 5, 2, 7, 9, 2, 10, 0
      | 2, 8, 9, 1, 8, 7, 0, 6, 4, 3, 9, 9, 7, 10, 4, 0, 3, 6, 1, 6, 1, 0, 7, 6, 0, 5, 3, 3, 7, 6
      | 6, 10, 7, 10, 0, 10, 4, 2, 0, 5, 6, 6, 8, 6, 1, 0, 5, 0, 10, 0, 0, 6, 0, 8, 9, 9, 0, 5, 3, 0
      | 6, 4, 7, 1, 0, 2, 0, 10, 0, 7, 0, 0, 0, 6, 0, 0, 10, 0, 6, 0, 3, 6, 4, 0, 6, 2, 3, 8, 7, 10 |];
suc = [ { 4, 5, 9 },
       { 5, 6, 7 },
       { 4, 13, 14 },
       { 6, 11, 17 },
       { 8, 10, 11 },
       { 20, 24, 30 },
       { 8, 18, 27 },
       { 13, 15, 16 },
       { 12, 29 },
       { 12, 14, 20 },
       { 15, 20, 21 },
       { 18, 19 },
       { 19, 21, 22 },
       { 15, 23, 24 },
       { 19, 22, 26 },
       { 21 },
       { 18, 23, 24 },
       { 22, 30 },
       { 28, 30 },
       { 23, 25 },
       { 26 },
       { 28 },
       { 26, 27, 28 },
       { 25 },
       { 27 },
       { 29 },
       { 29 },
       {  },
       {  },
       {  } ];
